words_easy_train/words_118_SAT.qaiger
aag 34 16 0 1 18
6
20
26
24
4
22
30
32
10
8
18
14
12
16
28
2
68
34 23 21
36 34 19
38 30 2
40 31 3
42 41 39
44 27 25
46 44 29
48 46 43
50 48 36
52 32 4
54 33 5
56 55 53
58 57 38
60 56 39
62 61 59
64 63 51
66 62 50
68 67 65
i0 2 y2[2]
i1 1 x1[1]
i2 1 x1[4]
i3 1 x1[3]
i4 2 y2[1]
i5 1 x1[2]
i6 1 x1[6]
i7 1 x1[7]
i8 2 y2[4]
i9 2 y2[3]
i10 1 x1[0]
i11 2 y2[6]
i12 2 y2[5]
i13 2 y2[7]
i14 1 x1[5]
i15 2 y2[0]
o0 bv[0]
c
simplified
  <=
    1
    add
      << 6
        2 y2
      1 x1
