words_easy_train/words_118_SAT.qaiger.qdimacs
p cnf 34 55
a 9 10 11 12 13 14 15 16 0
e 1 2 3 4 5 6 7 8 17 18 19 20 21 22 23 24 25 26 27 28 29 30 31 32 33 34 0
11 10 17 0
-11 -17 0
-10 -17 0
-17 9 18 0
17 -18 0
-9 -18 0
-15 -1 19 0
15 -19 0
1 -19 0
15 1 20 0
-15 -20 0
-1 -20 0
20 19 21 0
-20 -21 0
-19 -21 0
13 12 22 0
-13 -22 0
-12 -22 0
-22 14 23 0
22 -23 0
-14 -23 0
-23 21 24 0
23 -24 0
-21 -24 0
-24 -18 25 0
24 -25 0
18 -25 0
-16 -2 26 0
16 -26 0
2 -26 0
16 2 27 0
-16 -27 0
-2 -27 0
27 26 28 0
-27 -28 0
-26 -28 0
28 -19 29 0
-28 -29 0
19 -29 0
-28 19 30 0
28 -30 0
-19 -30 0
30 29 31 0
-30 -31 0
-29 -31 0
31 25 32 0
-31 -32 0
-25 -32 0
-31 -25 33 0
31 -33 0
25 -33 0
33 32 34 0
-33 -34 0
-32 -34 0
34 0
